data_dppmAu2Br2_fin
_audit_creation_method            
 'Olex2: 2025.07.13 svn.rb7424aed MSC:194435211 on WIN64, Python: 3.8.10, wxWidgets: 3.2.5 for OlexSys'
_chemical_name_common              '?'
_chemical_name_systematic          '?'
_chemical_formula_moiety           'C25 H22 Au2 Br2 P2'
_chemical_formula_sum              'C25 H22 Au2 Br2 P2'
_chemical_formula_weight           469.07
_chemical_melting_point            ?
_space_group_crystal_system        'monoclinic'
_space_group_IT_number             15
_space_group_name_H-M_alt          'C 1 2/c 1'
_space_group_name_Hall             '-C 2yc'
loop_
  _space_group_symop_id
  _space_group_symop_operation_xyz
 1 +X,+Y,+Z
 2 -X,+Y,1/2-Z
 3 1/2+X,1/2+Y,+Z
 4 1/2-X,1/2+Y,1/2-Z
 5 -X,-Y,-Z
 6 +X,-Y,1/2+Z
 7 1/2-X,1/2-Y,-Z
 8 1/2+X,1/2-Y,1/2+Z

_cell_length_a                     31.0668(7)
_cell_length_b                     7.30892(3)
_cell_length_c                     18.3076(4)
_cell_angle_alpha                  90
_cell_angle_beta                   142.559(5)
_cell_angle_gamma                  90
_cell_volume                       2527.2(3)
_cell_formula_units_Z              4
_exptl_crystal_size_max            0.04
_exptl_crystal_size_mid            0.057
_exptl_crystal_size_min            0.094
_diffrn_reflns_av_R_equivalents    0.0412
_diffrn_reflns_av_unetI/netI       0.0162
_diffrn_reflns_limit_h_max         66
_diffrn_reflns_limit_h_min         -66
_diffrn_reflns_limit_k_max         15
_diffrn_reflns_limit_k_min         -15
_diffrn_reflns_limit_l_max         38
_diffrn_reflns_limit_l_min         -38
_diffrn_reflns_number              130029
_diffrn_reflns_theta_max           37.78
_diffrn_reflns_theta_min           2.16
_diffrn_ambient_temperature        100.15
_diffrn_radiation_wavelength       0.71073
_reflns_number_total               6793
_refine_diff_density_max           1.09
loop_
  _atom_site_label
  _atom_site_type_symbol
  _atom_site_fract_x
  _atom_site_fract_y
  _atom_site_fract_z
  _atom_site_U_iso_or_equiv
  _atom_site_adp_type
  _atom_site_occupancy
  _atom_site_refinement_flags_posn
  _atom_site_site_symmetry_order
  _atom_site_disorder_group
 Au01 Au 0.500003(5) 0.123445(13) 0.156075(8) 0.01457(4) Uani 1 . 1 .
 Br02 Br 0.430565(17) -0.13420(4) 0.02217(3) 0.02257(7) Uani 1 . 1 .
 P003 P 0.558296(16) 0.37315(4) 0.27261(3) 0.01239(5) Uani 1 . 1 .
 C004 C 0.63579(6) 0.32573(16) 0.43236(11) 0.01374(18) Uani 1 . 1 .
 C005 C 0.72408(8) 0.4103(2) 0.64041(13) 0.0226(3) Uani 1 . 1 .
 H005 H 0.7419(11) 0.492(3) 0.7000(18) 0.033(6) Uani 1 . 1 .
 C006 C 0.67211(8) 0.16251(19) 0.46918(13) 0.0220(2) Uani 1 . 1 .
 H006 H 0.6542(12) 0.085(3) 0.409(2) 0.033(6) Uani 1 . 1 .
 C007 C 0.59850(7) 0.5876(2) 0.12588(13) 0.0219(2) Uani 1 . 1 .
 H007 H 0.5881(12) 0.550(3) 0.063(2) 0.039(6) Uani 1 . 1 .
 C008 C 0.57704(7) 0.47238(19) 0.15324(11) 0.0180(2) Uani 1 . 1 .
 H008 H 0.5553(10) 0.359(2) 0.1141(18) 0.017(4) Uani 1 . 1 .
 C009 C 0.76040(7) 0.2491(2) 0.67598(12) 0.0218(2) Uani 1 . 1 .
 H009 H 0.804(1) 0.228(3) 0.7611(18) 0.026(5) Uani 1 . 1 .
 C00A C 0.62229(9) 0.68904(19) 0.30240(15) 0.0226(3) Uani 1 . 1 .
 H00A H 0.6338(12) 0.723(3) 0.368(2) 0.041(6) Uani 1 . 1 .
 C00B C 0.58849(6) 0.52287(16) 0.24108(11) 0.01487(19) Uani 1 . 1 .
 C00C C 0.66232(7) 0.44992(19) 0.51923(12) 0.0193(2) Uani 1 . 1 .
 H00C H 0.6403(10) 0.559(3) 0.4955(18) 0.024(5) Uani 1 . 1 .
 C00D C 0.64373(9) 0.80216(19) 0.27463(17) 0.0269(3) Uani 1 . 1 .
 H00D H 0.6669(13) 0.911(3) 0.316(2) 0.042(7) Uani 1 . 1 .
 C00E C 0.73479(8) 0.1255(2) 0.59089(14) 0.0271(3) Uani 1 . 1 .
 H00E H 0.7612(12) 0.010(3) 0.615(2) 0.040(6) Uani 1 . 1 .
 C00F C 0.63140(8) 0.7522(2) 0.18564(15) 0.0242(3) Uani 1 . 1 .
 H00F H 0.6457(11) 0.834(3) 0.1665(19) 0.030(5) Uani 1 . 1 .
 C00G C 0.5 0.5159(2) 0.25 0.0134(3) Uani 1 . 2 .
 H00G H 0.4744(10) 0.593(2) 0.1840(17) 0.020(5) Uani 1 . 1 .

loop_
  _atom_site_aniso_label
  _atom_site_aniso_U_11
  _atom_site_aniso_U_22
  _atom_site_aniso_U_33
  _atom_site_aniso_U_23
  _atom_site_aniso_U_13
  _atom_site_aniso_U_12
 Au01 0.01578(4) 0.01362(7) 0.01446(4) -0.00158(3) 0.01205(3) -0.00145(3)
 Br02 0.02720(13) 0.01477(14) 0.01731(11) -0.00319(10) 0.01571(9) -0.00597(11)
 P003 0.01250(12) 0.01330(11) 0.01290(12) -0.00069(10) 0.01044(11) -0.00041(9)
 C004 0.0130(5) 0.0158(4) 0.0135(5) -0.0002(4) 0.0107(4) -0.0002(4)
 C005 0.0169(6) 0.0302(7) 0.0158(5) -0.0042(5) 0.0118(5) -0.0004(5)
 H005 0.032736 0.032736 0.032736 -0 0.025992 -0
 C006 0.0205(6) 0.0202(5) 0.0176(6) 0.0000(4) 0.0133(5) 0.0047(5)
 H006 0.03349 0.03349 0.03349 -0 0.02659 -0
 C007 0.0177(5) 0.0336(7) 0.0169(5) 0.0039(5) 0.0143(5) 0.0009(5)
 H007 0.039164 0.039164 0.039164 -0 0.031095 -0
 C008 0.0141(5) 0.0259(6) 0.0143(5) 0.0009(4) 0.0114(5) 0.0003(4)
 H008 0.016665 0.016665 0.016665 -0 0.013232 -0
 C009 0.0144(5) 0.0307(6) 0.0147(5) 0.0023(5) 0.0102(5) 0.0019(5)
 H009 0.026126 0.026126 0.026126 -0 0.020744 -0
 C00A 0.0328(7) 0.0181(5) 0.0337(7) -0.0049(5) 0.0303(7) -0.0051(5)
 H00A 0.040921 0.040921 0.040921 -0 0.03249 -0
 C00B 0.0146(5) 0.0167(5) 0.0162(5) 0.0011(4) 0.0129(5) 0.0009(4)
 C00C 0.0175(5) 0.0210(5) 0.0162(5) -0.0019(4) 0.0126(5) 0.0020(4)
 H00C 0.02366 0.02366 0.02366 -0 0.018785 -0
 C00D 0.0369(8) 0.0176(5) 0.0441(9) -0.0018(6) 0.0364(8) -0.0039(5)
 H00D 0.042441 0.042441 0.042441 -0 0.033698 -0
 C00E 0.0220(6) 0.0266(7) 0.0199(6) 0.0048(5) 0.0136(6) 0.0095(5)
 H00E 0.039695 0.039695 0.039695 -0 0.031517 -0
 C00F 0.0238(6) 0.0265(6) 0.0303(7) 0.0095(5) 0.0234(6) 0.0043(5)
 H00F 0.029778 0.029778 0.029778 -0 0.023643 -0
 C00G 0.0127(6) 0.0144(6) 0.0149(7) -0 0.0114(6) -0
 H00G 0.019746 0.019746 0.019746 -0 0.015678 -0

