! ROKS R2SCAN def2-TZVP

*xyz 0 2
Au 0.0 0.0 0.0
*
