! R2SCAN def2-tzvpp ROKS

*xyz 0 5
Rb 0.0 0.0 0.0
Rb 3.0 3.0 0.0
Rb 0.0 3.0 3.0
Rb 3.0 0.0 3.0
*
