! R2SCAN def2-TZVP  ROKS LARGEPRINT

*xyz 0 2
Rb 0.0 0.0 0.0
*
