# CASSCF(8,6)/def2-TZVP for water deprotonation
! CASSCF def2-TZVP KeepDens TightSCF

%casscf
  nel 8
  norb 6
  mult 1
  nroots 1
end

* xyz 0 1
  O   0.000000   0.000000   0.000000
  H   0.000000   0.757000   0.586000
  H   0.000000  -0.757000   1.800000
*