! R2SCAN def2-TZVP

*xyz 0 1
Rn 0.0 0.0 0.0
*
