# input to generate an atomic fitting density for Cs
# this file is used internally by ORCA
#
# atomic ground state (S=2): 1s2 2s2 2p6 3s2 3p6 4s2 3d10 4p6 5s2 4d10 5p6 6s1 
#
! RHF AllowRHF def2-SVP def2/J  NoMulliken NoLoewdin NoMayer NoPrintMOs 

%output print[p_atomdensfit] 2 end

%scf
  guess hcore
  maxiter 1000
  maxdisk 500000
  SCFMode Conventional
  lshift 1.000000
  hftyp rohf
  rohf_case sahf
  rohf_numop   2
  rohf_norb[1] 1
  rohf_nel[1]  1
end

%basis
  NewECP 55
    N_core 46
    lmax f
    s 3
      1       4.0797500000     84.5477300000  2
      2       2.4174060000     16.6541730000  2
      3       3.1232690000     28.8843090000  2
    p 3
      1       5.5140800000    157.0490590000  2
      2       2.1603160000     26.4233070000  2
      3       3.1232690000     28.8843090000  2
    d 3
      1       1.8074100000     13.1727530000  2
      2       0.8581820000      3.3428330000  2
      3       3.1232690000     28.8843090000  2
    f 1
      1       3.1232690000    -28.8843090000  2
  end
  NewGTO 55
    s 3 
     1       5.8778113443      0.2532294620
     2       4.3631538286     -0.6819588200
     3       1.8048475155      1.3770221239
    s 1 
     1       0.3748523714      1.0000000000
    s 1 
     1       0.1638485878      1.0000000000
    s 1 
     1       0.0272304620      1.0000000000
    s 1 
     1       0.0119915332      1.0000000000
    p 4 
     1       4.2751856154      0.0454150690
     2       1.9656663360     -0.2485141953
     3       0.4768919521      0.5528590081
     4       0.2152974959      0.5782637464
    p 1 
     1       0.0914508503      1.0000000000
    p 1 
     1       0.0175920785      1.0000000000
    d 1 
     1       0.2794147155      1.0000000000
    d 1 
     1       0.0624198097      1.0000000000
    d 1 
     1       0.0159878702      1.0000000000
  end
  NewAuxGTO 55
    S 1
     1 1310.72 1.0
    S 1
     1  655.36 1.0
    S 1
     1  327.68 1.0
    S 1
     1  163.84 1.0
    S 1
     1   81.82 1.0
    S 1
     1   40.96 1.0
    S 1
     1   20.48 1.0
    S 1
     1   10.24 1.0
    S 1
     1    5.12 1.0
    S 1
     1    2.56 1.0
    S 1
     1    1.28 1.0
    S 1
     1    0.64 1.0
    S 1
     1    0.32 1.0
    S 1
     1    0.16 1.0
    S 1
     1    0.08 1.0
    S 1
     1    0.04 1.0
    S 1
     1    0.02 1.0
    S 1
     1    0.01 1.0
  end
end

* xyz 0 2
55  0.0 0.0 0.0
*