! def2-TZVP M062X ExtremeSCF PAL8

*xyzfile -1 1 formiat.xyz
