! def2-TZVP M062X ExtremeSCF

*int 0 1
C 0 0 0 0.0  0.0           0.0  
H 1 0 0 1.09 0.0           0.0
H 1 2 0 1.09 109.4712206   0.0
H 1 2 3 1.09 109.4712206  120.0
H 1 2 3 1.09 109.4712206 -120.0
*