! def2-TZVP ExtremeSCF

*xyzfile -1 1 formiat.xyz
